\ENCODING=ISO-8859-1
\Problem name: 

Minimize
 obj: 8 x_2_8 + 7 x_2_21 + 2 x_2_32 + 8 x_4_5 + 7 x_7_29 + 7 x_11_3 + 9 x_14_31
      + 7 x_17_6 + 6 x_17_42 + 2 x_18_19 + x_18_28 + x_18_43 + 5 x_2_19
      + 3 x_7_20 + 7 x_14_20 + 8 x_20_16 + 2 x_20_27 + 8 x_20_38 + 10 x_20_40
      + 2 x_20_48 + 7 x_21_12 + 5 x_21_17 + 10 x_21_18 + 6 x_22_10 + 2 x_20_22
      + 2 x_21_22 + 8 x_40_22 + 7 x_43_22 + 4 x_25_34 + 4 x_27_34 + 8 x_5_28
      + 5 x_28_24 + 5 x_29_9 + 7 x_29_33 + 4 x_5_30 + x_30_15 + 2 x_16_30
      + 3 x_33_35 + 10 x_20_34 + 2 x_34_30 + 8 x_2_36 + 6 x_4_36 + 9 x_11_36
      + 7 x_36_39 + 9 x_36_49 + 10 x_36_50 + 10 x_40_15 + 3 x_40_23 + 5 x_41_1
      + 8 x_22_41 + 5 x_25_41 + 2 x_36_41 + 7 x_41_44 + 7 x_41_47 + 9 x_6_42
      + 10 x_42_46 + 8 x_24_44 + 3 x_39_44 + 6 x_45_26 + x_28_45 + 3 x_47_37
      + 10 x_47_45 + x_50_13
Subject To
 c1:   x_2_8 - y2 <= 0
 c2:   x_2_8 - y8 <= 0
 c3:   x_2_21 - y2 <= 0
 c4:   x_2_21 - y21 <= 0
 c5:   x_2_32 - y2 <= 0
 c6:   x_2_32 - y32 <= 0
 c7:   x_4_5 - y4 <= 0
 c8:   x_4_5 - y5 <= 0
 c9:   x_7_29 - y7 <= 0
 c10:  x_7_29 - y29 <= 0
 c11:  x_11_3 - y11 <= 0
 c12:  x_11_3 - y3 <= 0
 c13:  x_14_31 - y14 <= 0
 c14:  x_14_31 - y31 <= 0
 c15:  x_17_6 - y17 <= 0
 c16:  x_17_6 - y6 <= 0
 c17:  x_17_42 - y17 <= 0
 c18:  x_17_42 - y42 <= 0
 c19:  x_18_19 - y18 <= 0
 c20:  x_18_19 - y19 <= 0
 c21:  x_18_28 - y18 <= 0
 c22:  x_18_28 - y28 <= 0
 c23:  x_18_43 - y18 <= 0
 c24:  x_18_43 - y43 <= 0
 c25:  x_2_19 - y2 <= 0
 c26:  x_2_19 - y19 <= 0
 c27:  x_7_20 - y7 <= 0
 c28:  x_7_20 - y20 <= 0
 c29:  x_14_20 - y14 <= 0
 c30:  x_14_20 - y20 <= 0
 c31:  x_20_16 - y20 <= 0
 c32:  x_20_16 - y16 <= 0
 c33:  x_20_27 - y20 <= 0
 c34:  x_20_27 - y27 <= 0
 c35:  x_20_38 - y20 <= 0
 c36:  x_20_38 - y38 <= 0
 c37:  x_20_40 - y20 <= 0
 c38:  x_20_40 - y40 <= 0
 c39:  x_20_48 - y20 <= 0
 c40:  x_20_48 - y48 <= 0
 c41:  x_21_12 - y21 <= 0
 c42:  x_21_12 - y12 <= 0
 c43:  x_21_17 - y21 <= 0
 c44:  x_21_17 - y17 <= 0
 c45:  x_21_18 - y21 <= 0
 c46:  x_21_18 - y18 <= 0
 c47:  x_22_10 - y22 <= 0
 c48:  x_22_10 - y10 <= 0
 c49:  x_20_22 - y20 <= 0
 c50:  x_20_22 - y22 <= 0
 c51:  x_21_22 - y21 <= 0
 c52:  x_21_22 - y22 <= 0
 c53:  x_40_22 - y40 <= 0
 c54:  x_40_22 - y22 <= 0
 c55:  x_43_22 - y43 <= 0
 c56:  x_43_22 - y22 <= 0
 c57:  x_25_34 - y25 <= 0
 c58:  x_25_34 - y34 <= 0
 c59:  x_27_34 - y27 <= 0
 c60:  x_27_34 - y34 <= 0
 c61:  x_5_28 - y5 <= 0
 c62:  x_5_28 - y28 <= 0
 c63:  x_28_24 - y28 <= 0
 c64:  x_28_24 - y24 <= 0
 c65:  x_29_9 - y29 <= 0
 c66:  x_29_9 - y9 <= 0
 c67:  x_29_33 - y29 <= 0
 c68:  x_29_33 - y33 <= 0
 c69:  x_5_30 - y5 <= 0
 c70:  x_5_30 - y30 <= 0
 c71:  x_30_15 - y30 <= 0
 c72:  x_30_15 - y15 <= 0
 c73:  x_16_30 - y16 <= 0
 c74:  x_16_30 - y30 <= 0
 c75:  x_33_35 - y33 <= 0
 c76:  x_33_35 - y35 <= 0
 c77:  x_20_34 - y20 <= 0
 c78:  x_20_34 - y34 <= 0
 c79:  x_34_30 - y34 <= 0
 c80:  x_34_30 - y30 <= 0
 c81:  x_2_36 - y2 <= 0
 c82:  x_2_36 - y36 <= 0
 c83:  x_4_36 - y4 <= 0
 c84:  x_4_36 - y36 <= 0
 c85:  x_11_36 - y11 <= 0
 c86:  x_11_36 - y36 <= 0
 c87:  x_36_39 - y36 <= 0
 c88:  x_36_39 - y39 <= 0
 c89:  x_36_49 - y36 <= 0
 c90:  x_36_49 - y49 <= 0
 c91:  x_36_50 - y36 <= 0
 c92:  x_36_50 - y50 <= 0
 c93:  x_40_15 - y40 <= 0
 c94:  x_40_15 - y15 <= 0
 c95:  x_40_23 - y40 <= 0
 c96:  x_40_23 - y23 <= 0
 c97:  x_41_1 - y41 <= 0
 c98:  x_41_1 - y1 <= 0
 c99:  x_22_41 - y22 <= 0
 c100: x_22_41 - y41 <= 0
 c101: x_25_41 - y25 <= 0
 c102: x_25_41 - y41 <= 0
 c103: x_36_41 - y36 <= 0
 c104: x_36_41 - y41 <= 0
 c105: x_41_44 - y41 <= 0
 c106: x_41_44 - y44 <= 0
 c107: x_41_47 - y41 <= 0
 c108: x_41_47 - y47 <= 0
 c109: x_6_42 - y6 <= 0
 c110: x_6_42 - y42 <= 0
 c111: x_42_46 - y42 <= 0
 c112: x_42_46 - y46 <= 0
 c113: x_24_44 - y24 <= 0
 c114: x_24_44 - y44 <= 0
 c115: x_39_44 - y39 <= 0
 c116: x_39_44 - y44 <= 0
 c117: x_45_26 - y45 <= 0
 c118: x_45_26 - y26 <= 0
 c119: x_28_45 - y28 <= 0
 c120: x_28_45 - y45 <= 0
 c121: x_47_37 - y47 <= 0
 c122: x_47_37 - y37 <= 0
 c123: x_47_45 - y47 <= 0
 c124: x_47_45 - y45 <= 0
 c125: x_50_13 - y50 <= 0
 c126: x_50_13 - y13 <= 0
Bounds
 0 <= x_2_8 <= 1
 0 <= x_2_21 <= 1
 0 <= x_2_32 <= 1
 0 <= x_4_5 <= 1
 0 <= x_7_29 <= 1
 0 <= x_11_3 <= 1
 0 <= x_14_31 <= 1
 0 <= x_17_6 <= 1
 0 <= x_17_42 <= 1
 0 <= x_18_19 <= 1
 0 <= x_18_28 <= 1
 0 <= x_18_43 <= 1
 0 <= x_2_19 <= 1
 0 <= x_7_20 <= 1
 0 <= x_14_20 <= 1
 0 <= x_20_16 <= 1
 0 <= x_20_27 <= 1
 0 <= x_20_38 <= 1
 0 <= x_20_40 <= 1
 0 <= x_20_48 <= 1
 0 <= x_21_12 <= 1
 0 <= x_21_17 <= 1
 0 <= x_21_18 <= 1
 0 <= x_22_10 <= 1
 0 <= x_20_22 <= 1
 0 <= x_21_22 <= 1
 0 <= x_40_22 <= 1
 0 <= x_43_22 <= 1
 0 <= x_25_34 <= 1
 0 <= x_27_34 <= 1
 0 <= x_5_28 <= 1
 0 <= x_28_24 <= 1
 0 <= x_29_9 <= 1
 0 <= x_29_33 <= 1
 0 <= x_5_30 <= 1
 0 <= x_30_15 <= 1
 0 <= x_16_30 <= 1
 0 <= x_33_35 <= 1
 0 <= x_20_34 <= 1
 0 <= x_34_30 <= 1
 0 <= x_2_36 <= 1
 0 <= x_4_36 <= 1
 0 <= x_11_36 <= 1
 0 <= x_36_39 <= 1
 0 <= x_36_49 <= 1
 0 <= x_36_50 <= 1
 0 <= x_40_15 <= 1
 0 <= x_40_23 <= 1
 0 <= x_41_1 <= 1
 0 <= x_22_41 <= 1
 0 <= x_25_41 <= 1
 0 <= x_36_41 <= 1
 0 <= x_41_44 <= 1
 0 <= x_41_47 <= 1
 0 <= x_6_42 <= 1
 0 <= x_42_46 <= 1
 0 <= x_24_44 <= 1
 0 <= x_39_44 <= 1
 0 <= x_45_26 <= 1
 0 <= x_28_45 <= 1
 0 <= x_47_37 <= 1
 0 <= x_47_45 <= 1
 0 <= x_50_13 <= 1
 0 <= y1 <= 1
 0 <= y2 <= 1
 0 <= y3 <= 1
 0 <= y4 <= 1
 0 <= y5 <= 1
 0 <= y6 <= 1
 0 <= y7 <= 1
 0 <= y8 <= 1
 0 <= y9 <= 1
 0 <= y10 <= 1
 0 <= y11 <= 1
 0 <= y12 <= 1
 0 <= y13 <= 1
 0 <= y14 <= 1
 0 <= y15 <= 1
 0 <= y16 <= 1
 0 <= y17 <= 1
 0 <= y18 <= 1
 0 <= y19 <= 1
 0 <= y20 <= 1
 0 <= y21 <= 1
 0 <= y22 <= 1
 0 <= y23 <= 1
 0 <= y24 <= 1
 0 <= y25 <= 1
 0 <= y26 <= 1
 0 <= y27 <= 1
 0 <= y28 <= 1
 0 <= y29 <= 1
 0 <= y30 <= 1
 0 <= y31 <= 1
 0 <= y32 <= 1
 0 <= y33 <= 1
 0 <= y34 <= 1
 0 <= y35 <= 1
 0 <= y36 <= 1
 0 <= y37 <= 1
 0 <= y38 <= 1
 0 <= y39 <= 1
 0 <= y40 <= 1
 0 <= y41 <= 1
 0 <= y42 <= 1
 0 <= y43 <= 1
 0 <= y44 <= 1
 0 <= y45 <= 1
 0 <= y46 <= 1
 0 <= y47 <= 1
 0 <= y48 <= 1
 0 <= y49 <= 1
 0 <= y50 <= 1
Binaries
 x_2_8  x_2_21  x_2_32  x_4_5  x_7_29  x_11_3  x_14_31  x_17_6  x_17_42 
 x_18_19  x_18_28  x_18_43  x_2_19  x_7_20  x_14_20  x_20_16  x_20_27  x_20_38 
 x_20_40  x_20_48  x_21_12  x_21_17  x_21_18  x_22_10  x_20_22  x_21_22 
 x_40_22  x_43_22  x_25_34  x_27_34  x_5_28  x_28_24  x_29_9  x_29_33  x_5_30 
 x_30_15  x_16_30  x_33_35  x_20_34  x_34_30  x_2_36  x_4_36  x_11_36  x_36_39 
 x_36_49  x_36_50  x_40_15  x_40_23  x_41_1  x_22_41  x_25_41  x_36_41 
 x_41_44  x_41_47  x_6_42  x_42_46  x_24_44  x_39_44  x_45_26  x_28_45 
 x_47_37  x_47_45  x_50_13  y1  y2  y3  y4  y5  y6  y7  y8  y9  y10  y11  y12 
 y13  y14  y15  y16  y17  y18  y19  y20  y21  y22  y23  y24  y25  y26  y27 
 y28  y29  y30  y31  y32  y33  y34  y35  y36  y37  y38  y39  y40  y41  y42 
 y43  y44  y45  y46  y47  y48  y49  y50 
End
